s 1
<<<<<<< HEAD
v -1 2 3 4 -5 -6 -7 8 9 10 11 -12 -13 14 15 -16 17 18 19 20
t 0.118100ms
t 0.657100ms(optimized)
Optimization Rate: -456.39%
=======
v 1 -2 -3 -4 -5 6 -7 -8 9 -10 -11 -12 -13 14 15 -16 17 -18 -19 20
t 0.783600ms
t 0.404400ms(optimized)
Optimization Rate: 48.39%
>>>>>>> a042052d5eca52f6509587e0a2c1fd97d4818740
